(set-logic QF_LRA)
(declare-fun T1 () Real )
(declare-fun T2 () Real )
(declare-fun T3 () Real )
(declare-fun T4 () Real )
(declare-fun T5 () Real )
(declare-fun T6 () Real )
(declare-fun T7 () Real )
(declare-fun T8 () Real )
(declare-fun T9 () Real )
(declare-fun T10 () Real )
(declare-fun Z () Real )
(assert ( and 
(or ( <= ( + T1 84 ) T2 ) ( <= ( + T2 48 ) T1 ) )
(or ( <= ( + T1 106 )  ( + T2 48 ) ) ( <= ( + T2 90 )( + T1 84 ) ) )
(or ( <= ( + T1 107 )  ( + T2 90 ) ) ( <= ( + T2 169 )( + T1 106 ) ) )
(or ( <= ( + T1 140 )  ( + T2 169 ) ) ( <= ( + T2 250 )( + T1 107 ) ) )
(or ( <= ( + T1 168 )  ( + T2 250 ) ) ( <= ( + T2 262 )( + T1 140 ) ) )
(or ( <= ( + T1 194 )  ( + T2 262 ) ) ( <= ( + T2 353 )( + T1 168 ) ) )
(or ( <= ( + T1 266 )  ( + T2 353 ) ) ( <= ( + T2 355 )( + T1 194 ) ) )
(or ( <= ( + T1 339 )  ( + T2 355 ) ) ( <= ( + T2 401 )( + T1 266 ) ) )
(or ( <= ( + T1 374 )  ( + T2 401 ) ) ( <= ( + T2 418 )( + T1 339 ) ) )
(or ( <= ( + T1 391 )  ( + T2 418 ) ) ( <= ( + T2 467 )( + T1 374 ) ) )
(or ( <= ( + T1 413 )  ( + T2 467 ) ) ( <= ( + T2 514 )( + T1 391 ) ) )
(or ( <= ( + T1 444 )  ( + T2 514 ) ) ( <= ( + T2 600 )( + T1 413 ) ) )
(or ( <= ( + T1 84 ) T3 ) ( <= ( + T3 44 ) T1 ) )
(or ( <= ( + T1 106 )  ( + T3 44 ) ) ( <= ( + T3 59 )( + T1 84 ) ) )
(or ( <= ( + T1 107 )  ( + T3 59 ) ) ( <= ( + T3 136 )( + T1 106 ) ) )
(or ( <= ( + T1 140 )  ( + T3 136 ) ) ( <= ( + T3 172 )( + T1 107 ) ) )
(or ( <= ( + T1 168 )  ( + T3 172 ) ) ( <= ( + T3 214 )( + T1 140 ) ) )
(or ( <= ( + T1 194 )  ( + T3 214 ) ) ( <= ( + T3 312 )( + T1 168 ) ) )
(or ( <= ( + T1 266 )  ( + T3 312 ) ) ( <= ( + T3 366 )( + T1 194 ) ) )
(or ( <= ( + T1 339 )  ( + T3 366 ) ) ( <= ( + T3 391 )( + T1 266 ) ) )
(or ( <= ( + T1 374 )  ( + T3 391 ) ) ( <= ( + T3 410 )( + T1 339 ) ) )
(or ( <= ( + T1 391 )  ( + T3 410 ) ) ( <= ( + T3 464 )( + T1 374 ) ) )
(or ( <= ( + T1 413 )  ( + T3 464 ) ) ( <= ( + T3 522 )( + T1 391 ) ) )
(or ( <= ( + T1 444 )  ( + T3 522 ) ) ( <= ( + T3 620 )( + T1 413 ) ) )
(or ( <= ( + T1 84 ) T4 ) ( <= ( + T4 31 ) T1 ) )
(or ( <= ( + T1 106 )  ( + T4 31 ) ) ( <= ( + T4 112 )( + T1 84 ) ) )
(or ( <= ( + T1 107 )  ( + T4 112 ) ) ( <= ( + T4 135 )( + T1 106 ) ) )
(or ( <= ( + T1 140 )  ( + T4 135 ) ) ( <= ( + T4 152 )( + T1 107 ) ) )
(or ( <= ( + T1 168 )  ( + T4 152 ) ) ( <= ( + T4 201 )( + T1 140 ) ) )
(or ( <= ( + T1 194 )  ( + T4 201 ) ) ( <= ( + T4 245 )( + T1 168 ) ) )
(or ( <= ( + T1 266 )  ( + T4 245 ) ) ( <= ( + T4 293 )( + T1 194 ) ) )
(or ( <= ( + T1 339 )  ( + T4 293 ) ) ( <= ( + T4 390 )( + T1 266 ) ) )
(or ( <= ( + T1 374 )  ( + T4 390 ) ) ( <= ( + T4 428 )( + T1 339 ) ) )
(or ( <= ( + T1 391 )  ( + T4 428 ) ) ( <= ( + T4 454 )( + T1 374 ) ) )
(or ( <= ( + T1 413 )  ( + T4 454 ) ) ( <= ( + T4 483 )( + T1 391 ) ) )
(or ( <= ( + T1 444 )  ( + T4 483 ) ) ( <= ( + T4 484 )( + T1 413 ) ) )
(or ( <= ( + T1 84 ) T5 ) ( <= ( + T5 68 ) T1 ) )
(or ( <= ( + T1 106 )  ( + T5 68 ) ) ( <= ( + T5 99 )( + T1 84 ) ) )
(or ( <= ( + T1 107 )  ( + T5 99 ) ) ( <= ( + T5 145 )( + T1 106 ) ) )
(or ( <= ( + T1 140 )  ( + T5 145 ) ) ( <= ( + T5 229 )( + T1 107 ) ) )
(or ( <= ( + T1 168 )  ( + T5 229 ) ) ( <= ( + T5 308 )( + T1 140 ) ) )
(or ( <= ( + T1 194 )  ( + T5 308 ) ) ( <= ( + T5 353 )( + T1 168 ) ) )
(or ( <= ( + T1 266 )  ( + T5 353 ) ) ( <= ( + T5 423 )( + T1 194 ) ) )
(or ( <= ( + T1 339 )  ( + T5 423 ) ) ( <= ( + T5 497 )( + T1 266 ) ) )
(or ( <= ( + T1 374 )  ( + T5 497 ) ) ( <= ( + T5 556 )( + T1 339 ) ) )
(or ( <= ( + T1 391 )  ( + T5 556 ) ) ( <= ( + T5 654 )( + T1 374 ) ) )
(or ( <= ( + T1 413 )  ( + T5 654 ) ) ( <= ( + T5 664 )( + T1 391 ) ) )
(or ( <= ( + T1 444 )  ( + T5 664 ) ) ( <= ( + T5 764 )( + T1 413 ) ) )
(or ( <= ( + T1 84 ) T6 ) ( <= ( + T6 47 ) T1 ) )
(or ( <= ( + T1 106 )  ( + T6 47 ) ) ( <= ( + T6 62 )( + T1 84 ) ) )
(or ( <= ( + T1 107 )  ( + T6 62 ) ) ( <= ( + T6 87 )( + T1 106 ) ) )
(or ( <= ( + T1 140 )  ( + T6 87 ) ) ( <= ( + T6 104 )( + T1 107 ) ) )
(or ( <= ( + T1 168 )  ( + T6 104 ) ) ( <= ( + T6 124 )( + T1 140 ) ) )
(or ( <= ( + T1 194 )  ( + T6 124 ) ) ( <= ( + T6 158 )( + T1 168 ) ) )
(or ( <= ( + T1 266 )  ( + T6 158 ) ) ( <= ( + T6 225 )( + T1 194 ) ) )
(or ( <= ( + T1 339 )  ( + T6 225 ) ) ( <= ( + T6 275 )( + T1 266 ) ) )
(or ( <= ( + T1 374 )  ( + T6 275 ) ) ( <= ( + T6 341 )( + T1 339 ) ) )
(or ( <= ( + T1 391 )  ( + T6 341 ) ) ( <= ( + T6 430 )( + T1 374 ) ) )
(or ( <= ( + T1 413 )  ( + T6 430 ) ) ( <= ( + T6 449 )( + T1 391 ) ) )
(or ( <= ( + T1 444 )  ( + T6 449 ) ) ( <= ( + T6 464 )( + T1 413 ) ) )
(or ( <= ( + T1 84 ) T7 ) ( <= ( + T7 84 ) T1 ) )
(or ( <= ( + T1 106 )  ( + T7 84 ) ) ( <= ( + T7 150 )( + T1 84 ) ) )
(or ( <= ( + T1 107 )  ( + T7 150 ) ) ( <= ( + T7 213 )( + T1 106 ) ) )
(or ( <= ( + T1 140 )  ( + T7 213 ) ) ( <= ( + T7 234 )( + T1 107 ) ) )
(or ( <= ( + T1 168 )  ( + T7 234 ) ) ( <= ( + T7 325 )( + T1 140 ) ) )
(or ( <= ( + T1 194 )  ( + T7 325 ) ) ( <= ( + T7 416 )( + T1 168 ) ) )
(or ( <= ( + T1 266 )  ( + T7 416 ) ) ( <= ( + T7 437 )( + T1 194 ) ) )
(or ( <= ( + T1 339 )  ( + T7 437 ) ) ( <= ( + T7 448 )( + T1 266 ) ) )
(or ( <= ( + T1 374 )  ( + T7 448 ) ) ( <= ( + T7 469 )( + T1 339 ) ) )
(or ( <= ( + T1 391 )  ( + T7 469 ) ) ( <= ( + T7 488 )( + T1 374 ) ) )
(or ( <= ( + T1 413 )  ( + T7 488 ) ) ( <= ( + T7 582 )( + T1 391 ) ) )
(or ( <= ( + T1 444 )  ( + T7 582 ) ) ( <= ( + T7 634 )( + T1 413 ) ) )
(or ( <= ( + T1 84 ) T8 ) ( <= ( + T8 63 ) T1 ) )
(or ( <= ( + T1 106 )  ( + T8 63 ) ) ( <= ( + T8 78 )( + T1 84 ) ) )
(or ( <= ( + T1 107 )  ( + T8 78 ) ) ( <= ( + T8 155 )( + T1 106 ) ) )
(or ( <= ( + T1 140 )  ( + T8 155 ) ) ( <= ( + T8 176 )( + T1 107 ) ) )
(or ( <= ( + T1 168 )  ( + T8 176 ) ) ( <= ( + T8 240 )( + T1 140 ) ) )
(or ( <= ( + T1 194 )  ( + T8 240 ) ) ( <= ( + T8 326 )( + T1 168 ) ) )
(or ( <= ( + T1 266 )  ( + T8 326 ) ) ( <= ( + T8 399 )( + T1 194 ) ) )
(or ( <= ( + T1 339 )  ( + T8 399 ) ) ( <= ( + T8 409 )( + T1 266 ) ) )
(or ( <= ( + T1 374 )  ( + T8 409 ) ) ( <= ( + T8 461 )( + T1 339 ) ) )
(or ( <= ( + T1 391 )  ( + T8 461 ) ) ( <= ( + T8 558 )( + T1 374 ) ) )
(or ( <= ( + T1 413 )  ( + T8 558 ) ) ( <= ( + T8 637 )( + T1 391 ) ) )
(or ( <= ( + T1 444 )  ( + T8 637 ) ) ( <= ( + T8 708 )( + T1 413 ) ) )
(or ( <= ( + T1 84 ) T9 ) ( <= ( + T9 30 ) T1 ) )
(or ( <= ( + T1 106 )  ( + T9 30 ) ) ( <= ( + T9 75 )( + T1 84 ) ) )
(or ( <= ( + T1 107 )  ( + T9 75 ) ) ( <= ( + T9 148 )( + T1 106 ) ) )
(or ( <= ( + T1 140 )  ( + T9 148 ) ) ( <= ( + T9 195 )( + T1 107 ) ) )
(or ( <= ( + T1 168 )  ( + T9 195 ) ) ( <= ( + T9 280 )( + T1 140 ) ) )
(or ( <= ( + T1 194 )  ( + T9 280 ) ) ( <= ( + T9 371 )( + T1 168 ) ) )
(or ( <= ( + T1 266 )  ( + T9 371 ) ) ( <= ( + T9 432 )( + T1 194 ) ) )
(or ( <= ( + T1 339 )  ( + T9 432 ) ) ( <= ( + T9 500 )( + T1 266 ) ) )
(or ( <= ( + T1 374 )  ( + T9 500 ) ) ( <= ( + T9 508 )( + T1 339 ) ) )
(or ( <= ( + T1 391 )  ( + T9 508 ) ) ( <= ( + T9 531 )( + T1 374 ) ) )
(or ( <= ( + T1 413 )  ( + T9 531 ) ) ( <= ( + T9 620 )( + T1 391 ) ) )
(or ( <= ( + T1 444 )  ( + T9 620 ) ) ( <= ( + T9 670 )( + T1 413 ) ) )
(or ( <= ( + T1 84 ) T10 ) ( <= ( + T10 66 ) T1 ) )
(or ( <= ( + T1 106 )  ( + T10 66 ) ) ( <= ( + T10 127 )( + T1 84 ) ) )
(or ( <= ( + T1 107 )  ( + T10 127 ) ) ( <= ( + T10 187 )( + T1 106 ) ) )
(or ( <= ( + T1 140 )  ( + T10 187 ) ) ( <= ( + T10 273 )( + T1 107 ) ) )
(or ( <= ( + T1 168 )  ( + T10 273 ) ) ( <= ( + T10 352 )( + T1 140 ) ) )
(or ( <= ( + T1 194 )  ( + T10 352 ) ) ( <= ( + T10 358 )( + T1 168 ) ) )
(or ( <= ( + T1 266 )  ( + T10 358 ) ) ( <= ( + T10 447 )( + T1 194 ) ) )
(or ( <= ( + T1 339 )  ( + T10 447 ) ) ( <= ( + T10 540 )( + T1 266 ) ) )
(or ( <= ( + T1 374 )  ( + T10 540 ) ) ( <= ( + T10 560 )( + T1 339 ) ) )
(or ( <= ( + T1 391 )  ( + T10 560 ) ) ( <= ( + T10 626 )( + T1 374 ) ) )
(or ( <= ( + T1 413 )  ( + T10 626 ) ) ( <= ( + T10 692 )( + T1 391 ) ) )
(or ( <= ( + T1 444 )  ( + T10 692 ) ) ( <= ( + T10 728 )( + T1 413 ) ) )
(or ( <= ( + T2 48 ) T3 ) ( <= ( + T3 44 ) T2 ) )
(or ( <= ( + T2 90 )  ( + T3 44 ) ) ( <= ( + T3 59 )( + T2 48 ) ) )
(or ( <= ( + T2 169 )  ( + T3 59 ) ) ( <= ( + T3 136 )( + T2 90 ) ) )
(or ( <= ( + T2 250 )  ( + T3 136 ) ) ( <= ( + T3 172 )( + T2 169 ) ) )
(or ( <= ( + T2 262 )  ( + T3 172 ) ) ( <= ( + T3 214 )( + T2 250 ) ) )
(or ( <= ( + T2 353 )  ( + T3 214 ) ) ( <= ( + T3 312 )( + T2 262 ) ) )
(or ( <= ( + T2 355 )  ( + T3 312 ) ) ( <= ( + T3 366 )( + T2 353 ) ) )
(or ( <= ( + T2 401 )  ( + T3 366 ) ) ( <= ( + T3 391 )( + T2 355 ) ) )
(or ( <= ( + T2 418 )  ( + T3 391 ) ) ( <= ( + T3 410 )( + T2 401 ) ) )
(or ( <= ( + T2 467 )  ( + T3 410 ) ) ( <= ( + T3 464 )( + T2 418 ) ) )
(or ( <= ( + T2 514 )  ( + T3 464 ) ) ( <= ( + T3 522 )( + T2 467 ) ) )
(or ( <= ( + T2 600 )  ( + T3 522 ) ) ( <= ( + T3 620 )( + T2 514 ) ) )
(or ( <= ( + T2 48 ) T4 ) ( <= ( + T4 31 ) T2 ) )
(or ( <= ( + T2 90 )  ( + T4 31 ) ) ( <= ( + T4 112 )( + T2 48 ) ) )
(or ( <= ( + T2 169 )  ( + T4 112 ) ) ( <= ( + T4 135 )( + T2 90 ) ) )
(or ( <= ( + T2 250 )  ( + T4 135 ) ) ( <= ( + T4 152 )( + T2 169 ) ) )
(or ( <= ( + T2 262 )  ( + T4 152 ) ) ( <= ( + T4 201 )( + T2 250 ) ) )
(or ( <= ( + T2 353 )  ( + T4 201 ) ) ( <= ( + T4 245 )( + T2 262 ) ) )
(or ( <= ( + T2 355 )  ( + T4 245 ) ) ( <= ( + T4 293 )( + T2 353 ) ) )
(or ( <= ( + T2 401 )  ( + T4 293 ) ) ( <= ( + T4 390 )( + T2 355 ) ) )
(or ( <= ( + T2 418 )  ( + T4 390 ) ) ( <= ( + T4 428 )( + T2 401 ) ) )
(or ( <= ( + T2 467 )  ( + T4 428 ) ) ( <= ( + T4 454 )( + T2 418 ) ) )
(or ( <= ( + T2 514 )  ( + T4 454 ) ) ( <= ( + T4 483 )( + T2 467 ) ) )
(or ( <= ( + T2 600 )  ( + T4 483 ) ) ( <= ( + T4 484 )( + T2 514 ) ) )
(or ( <= ( + T2 48 ) T5 ) ( <= ( + T5 68 ) T2 ) )
(or ( <= ( + T2 90 )  ( + T5 68 ) ) ( <= ( + T5 99 )( + T2 48 ) ) )
(or ( <= ( + T2 169 )  ( + T5 99 ) ) ( <= ( + T5 145 )( + T2 90 ) ) )
(or ( <= ( + T2 250 )  ( + T5 145 ) ) ( <= ( + T5 229 )( + T2 169 ) ) )
(or ( <= ( + T2 262 )  ( + T5 229 ) ) ( <= ( + T5 308 )( + T2 250 ) ) )
(or ( <= ( + T2 353 )  ( + T5 308 ) ) ( <= ( + T5 353 )( + T2 262 ) ) )
(or ( <= ( + T2 355 )  ( + T5 353 ) ) ( <= ( + T5 423 )( + T2 353 ) ) )
(or ( <= ( + T2 401 )  ( + T5 423 ) ) ( <= ( + T5 497 )( + T2 355 ) ) )
(or ( <= ( + T2 418 )  ( + T5 497 ) ) ( <= ( + T5 556 )( + T2 401 ) ) )
(or ( <= ( + T2 467 )  ( + T5 556 ) ) ( <= ( + T5 654 )( + T2 418 ) ) )
(or ( <= ( + T2 514 )  ( + T5 654 ) ) ( <= ( + T5 664 )( + T2 467 ) ) )
(or ( <= ( + T2 600 )  ( + T5 664 ) ) ( <= ( + T5 764 )( + T2 514 ) ) )
(or ( <= ( + T2 48 ) T6 ) ( <= ( + T6 47 ) T2 ) )
(or ( <= ( + T2 90 )  ( + T6 47 ) ) ( <= ( + T6 62 )( + T2 48 ) ) )
(or ( <= ( + T2 169 )  ( + T6 62 ) ) ( <= ( + T6 87 )( + T2 90 ) ) )
(or ( <= ( + T2 250 )  ( + T6 87 ) ) ( <= ( + T6 104 )( + T2 169 ) ) )
(or ( <= ( + T2 262 )  ( + T6 104 ) ) ( <= ( + T6 124 )( + T2 250 ) ) )
(or ( <= ( + T2 353 )  ( + T6 124 ) ) ( <= ( + T6 158 )( + T2 262 ) ) )
(or ( <= ( + T2 355 )  ( + T6 158 ) ) ( <= ( + T6 225 )( + T2 353 ) ) )
(or ( <= ( + T2 401 )  ( + T6 225 ) ) ( <= ( + T6 275 )( + T2 355 ) ) )
(or ( <= ( + T2 418 )  ( + T6 275 ) ) ( <= ( + T6 341 )( + T2 401 ) ) )
(or ( <= ( + T2 467 )  ( + T6 341 ) ) ( <= ( + T6 430 )( + T2 418 ) ) )
(or ( <= ( + T2 514 )  ( + T6 430 ) ) ( <= ( + T6 449 )( + T2 467 ) ) )
(or ( <= ( + T2 600 )  ( + T6 449 ) ) ( <= ( + T6 464 )( + T2 514 ) ) )
(or ( <= ( + T2 48 ) T7 ) ( <= ( + T7 84 ) T2 ) )
(or ( <= ( + T2 90 )  ( + T7 84 ) ) ( <= ( + T7 150 )( + T2 48 ) ) )
(or ( <= ( + T2 169 )  ( + T7 150 ) ) ( <= ( + T7 213 )( + T2 90 ) ) )
(or ( <= ( + T2 250 )  ( + T7 213 ) ) ( <= ( + T7 234 )( + T2 169 ) ) )
(or ( <= ( + T2 262 )  ( + T7 234 ) ) ( <= ( + T7 325 )( + T2 250 ) ) )
(or ( <= ( + T2 353 )  ( + T7 325 ) ) ( <= ( + T7 416 )( + T2 262 ) ) )
(or ( <= ( + T2 355 )  ( + T7 416 ) ) ( <= ( + T7 437 )( + T2 353 ) ) )
(or ( <= ( + T2 401 )  ( + T7 437 ) ) ( <= ( + T7 448 )( + T2 355 ) ) )
(or ( <= ( + T2 418 )  ( + T7 448 ) ) ( <= ( + T7 469 )( + T2 401 ) ) )
(or ( <= ( + T2 467 )  ( + T7 469 ) ) ( <= ( + T7 488 )( + T2 418 ) ) )
(or ( <= ( + T2 514 )  ( + T7 488 ) ) ( <= ( + T7 582 )( + T2 467 ) ) )
(or ( <= ( + T2 600 )  ( + T7 582 ) ) ( <= ( + T7 634 )( + T2 514 ) ) )
(or ( <= ( + T2 48 ) T8 ) ( <= ( + T8 63 ) T2 ) )
(or ( <= ( + T2 90 )  ( + T8 63 ) ) ( <= ( + T8 78 )( + T2 48 ) ) )
(or ( <= ( + T2 169 )  ( + T8 78 ) ) ( <= ( + T8 155 )( + T2 90 ) ) )
(or ( <= ( + T2 250 )  ( + T8 155 ) ) ( <= ( + T8 176 )( + T2 169 ) ) )
(or ( <= ( + T2 262 )  ( + T8 176 ) ) ( <= ( + T8 240 )( + T2 250 ) ) )
(or ( <= ( + T2 353 )  ( + T8 240 ) ) ( <= ( + T8 326 )( + T2 262 ) ) )
(or ( <= ( + T2 355 )  ( + T8 326 ) ) ( <= ( + T8 399 )( + T2 353 ) ) )
(or ( <= ( + T2 401 )  ( + T8 399 ) ) ( <= ( + T8 409 )( + T2 355 ) ) )
(or ( <= ( + T2 418 )  ( + T8 409 ) ) ( <= ( + T8 461 )( + T2 401 ) ) )
(or ( <= ( + T2 467 )  ( + T8 461 ) ) ( <= ( + T8 558 )( + T2 418 ) ) )
(or ( <= ( + T2 514 )  ( + T8 558 ) ) ( <= ( + T8 637 )( + T2 467 ) ) )
(or ( <= ( + T2 600 )  ( + T8 637 ) ) ( <= ( + T8 708 )( + T2 514 ) ) )
(or ( <= ( + T2 48 ) T9 ) ( <= ( + T9 30 ) T2 ) )
(or ( <= ( + T2 90 )  ( + T9 30 ) ) ( <= ( + T9 75 )( + T2 48 ) ) )
(or ( <= ( + T2 169 )  ( + T9 75 ) ) ( <= ( + T9 148 )( + T2 90 ) ) )
(or ( <= ( + T2 250 )  ( + T9 148 ) ) ( <= ( + T9 195 )( + T2 169 ) ) )
(or ( <= ( + T2 262 )  ( + T9 195 ) ) ( <= ( + T9 280 )( + T2 250 ) ) )
(or ( <= ( + T2 353 )  ( + T9 280 ) ) ( <= ( + T9 371 )( + T2 262 ) ) )
(or ( <= ( + T2 355 )  ( + T9 371 ) ) ( <= ( + T9 432 )( + T2 353 ) ) )
(or ( <= ( + T2 401 )  ( + T9 432 ) ) ( <= ( + T9 500 )( + T2 355 ) ) )
(or ( <= ( + T2 418 )  ( + T9 500 ) ) ( <= ( + T9 508 )( + T2 401 ) ) )
(or ( <= ( + T2 467 )  ( + T9 508 ) ) ( <= ( + T9 531 )( + T2 418 ) ) )
(or ( <= ( + T2 514 )  ( + T9 531 ) ) ( <= ( + T9 620 )( + T2 467 ) ) )
(or ( <= ( + T2 600 )  ( + T9 620 ) ) ( <= ( + T9 670 )( + T2 514 ) ) )
(or ( <= ( + T2 48 ) T10 ) ( <= ( + T10 66 ) T2 ) )
(or ( <= ( + T2 90 )  ( + T10 66 ) ) ( <= ( + T10 127 )( + T2 48 ) ) )
(or ( <= ( + T2 169 )  ( + T10 127 ) ) ( <= ( + T10 187 )( + T2 90 ) ) )
(or ( <= ( + T2 250 )  ( + T10 187 ) ) ( <= ( + T10 273 )( + T2 169 ) ) )
(or ( <= ( + T2 262 )  ( + T10 273 ) ) ( <= ( + T10 352 )( + T2 250 ) ) )
(or ( <= ( + T2 353 )  ( + T10 352 ) ) ( <= ( + T10 358 )( + T2 262 ) ) )
(or ( <= ( + T2 355 )  ( + T10 358 ) ) ( <= ( + T10 447 )( + T2 353 ) ) )
(or ( <= ( + T2 401 )  ( + T10 447 ) ) ( <= ( + T10 540 )( + T2 355 ) ) )
(or ( <= ( + T2 418 )  ( + T10 540 ) ) ( <= ( + T10 560 )( + T2 401 ) ) )
(or ( <= ( + T2 467 )  ( + T10 560 ) ) ( <= ( + T10 626 )( + T2 418 ) ) )
(or ( <= ( + T2 514 )  ( + T10 626 ) ) ( <= ( + T10 692 )( + T2 467 ) ) )
(or ( <= ( + T2 600 )  ( + T10 692 ) ) ( <= ( + T10 728 )( + T2 514 ) ) )
(or ( <= ( + T3 44 ) T4 ) ( <= ( + T4 31 ) T3 ) )
(or ( <= ( + T3 59 )  ( + T4 31 ) ) ( <= ( + T4 112 )( + T3 44 ) ) )
(or ( <= ( + T3 136 )  ( + T4 112 ) ) ( <= ( + T4 135 )( + T3 59 ) ) )
(or ( <= ( + T3 172 )  ( + T4 135 ) ) ( <= ( + T4 152 )( + T3 136 ) ) )
(or ( <= ( + T3 214 )  ( + T4 152 ) ) ( <= ( + T4 201 )( + T3 172 ) ) )
(or ( <= ( + T3 312 )  ( + T4 201 ) ) ( <= ( + T4 245 )( + T3 214 ) ) )
(or ( <= ( + T3 366 )  ( + T4 245 ) ) ( <= ( + T4 293 )( + T3 312 ) ) )
(or ( <= ( + T3 391 )  ( + T4 293 ) ) ( <= ( + T4 390 )( + T3 366 ) ) )
(or ( <= ( + T3 410 )  ( + T4 390 ) ) ( <= ( + T4 428 )( + T3 391 ) ) )
(or ( <= ( + T3 464 )  ( + T4 428 ) ) ( <= ( + T4 454 )( + T3 410 ) ) )
(or ( <= ( + T3 522 )  ( + T4 454 ) ) ( <= ( + T4 483 )( + T3 464 ) ) )
(or ( <= ( + T3 620 )  ( + T4 483 ) ) ( <= ( + T4 484 )( + T3 522 ) ) )
(or ( <= ( + T3 44 ) T5 ) ( <= ( + T5 68 ) T3 ) )
(or ( <= ( + T3 59 )  ( + T5 68 ) ) ( <= ( + T5 99 )( + T3 44 ) ) )
(or ( <= ( + T3 136 )  ( + T5 99 ) ) ( <= ( + T5 145 )( + T3 59 ) ) )
(or ( <= ( + T3 172 )  ( + T5 145 ) ) ( <= ( + T5 229 )( + T3 136 ) ) )
(or ( <= ( + T3 214 )  ( + T5 229 ) ) ( <= ( + T5 308 )( + T3 172 ) ) )
(or ( <= ( + T3 312 )  ( + T5 308 ) ) ( <= ( + T5 353 )( + T3 214 ) ) )
(or ( <= ( + T3 366 )  ( + T5 353 ) ) ( <= ( + T5 423 )( + T3 312 ) ) )
(or ( <= ( + T3 391 )  ( + T5 423 ) ) ( <= ( + T5 497 )( + T3 366 ) ) )
(or ( <= ( + T3 410 )  ( + T5 497 ) ) ( <= ( + T5 556 )( + T3 391 ) ) )
(or ( <= ( + T3 464 )  ( + T5 556 ) ) ( <= ( + T5 654 )( + T3 410 ) ) )
(or ( <= ( + T3 522 )  ( + T5 654 ) ) ( <= ( + T5 664 )( + T3 464 ) ) )
(or ( <= ( + T3 620 )  ( + T5 664 ) ) ( <= ( + T5 764 )( + T3 522 ) ) )
(or ( <= ( + T3 44 ) T6 ) ( <= ( + T6 47 ) T3 ) )
(or ( <= ( + T3 59 )  ( + T6 47 ) ) ( <= ( + T6 62 )( + T3 44 ) ) )
(or ( <= ( + T3 136 )  ( + T6 62 ) ) ( <= ( + T6 87 )( + T3 59 ) ) )
(or ( <= ( + T3 172 )  ( + T6 87 ) ) ( <= ( + T6 104 )( + T3 136 ) ) )
(or ( <= ( + T3 214 )  ( + T6 104 ) ) ( <= ( + T6 124 )( + T3 172 ) ) )
(or ( <= ( + T3 312 )  ( + T6 124 ) ) ( <= ( + T6 158 )( + T3 214 ) ) )
(or ( <= ( + T3 366 )  ( + T6 158 ) ) ( <= ( + T6 225 )( + T3 312 ) ) )
(or ( <= ( + T3 391 )  ( + T6 225 ) ) ( <= ( + T6 275 )( + T3 366 ) ) )
(or ( <= ( + T3 410 )  ( + T6 275 ) ) ( <= ( + T6 341 )( + T3 391 ) ) )
(or ( <= ( + T3 464 )  ( + T6 341 ) ) ( <= ( + T6 430 )( + T3 410 ) ) )
(or ( <= ( + T3 522 )  ( + T6 430 ) ) ( <= ( + T6 449 )( + T3 464 ) ) )
(or ( <= ( + T3 620 )  ( + T6 449 ) ) ( <= ( + T6 464 )( + T3 522 ) ) )
(or ( <= ( + T3 44 ) T7 ) ( <= ( + T7 84 ) T3 ) )
(or ( <= ( + T3 59 )  ( + T7 84 ) ) ( <= ( + T7 150 )( + T3 44 ) ) )
(or ( <= ( + T3 136 )  ( + T7 150 ) ) ( <= ( + T7 213 )( + T3 59 ) ) )
(or ( <= ( + T3 172 )  ( + T7 213 ) ) ( <= ( + T7 234 )( + T3 136 ) ) )
(or ( <= ( + T3 214 )  ( + T7 234 ) ) ( <= ( + T7 325 )( + T3 172 ) ) )
(or ( <= ( + T3 312 )  ( + T7 325 ) ) ( <= ( + T7 416 )( + T3 214 ) ) )
(or ( <= ( + T3 366 )  ( + T7 416 ) ) ( <= ( + T7 437 )( + T3 312 ) ) )
(or ( <= ( + T3 391 )  ( + T7 437 ) ) ( <= ( + T7 448 )( + T3 366 ) ) )
(or ( <= ( + T3 410 )  ( + T7 448 ) ) ( <= ( + T7 469 )( + T3 391 ) ) )
(or ( <= ( + T3 464 )  ( + T7 469 ) ) ( <= ( + T7 488 )( + T3 410 ) ) )
(or ( <= ( + T3 522 )  ( + T7 488 ) ) ( <= ( + T7 582 )( + T3 464 ) ) )
(or ( <= ( + T3 620 )  ( + T7 582 ) ) ( <= ( + T7 634 )( + T3 522 ) ) )
(or ( <= ( + T3 44 ) T8 ) ( <= ( + T8 63 ) T3 ) )
(or ( <= ( + T3 59 )  ( + T8 63 ) ) ( <= ( + T8 78 )( + T3 44 ) ) )
(or ( <= ( + T3 136 )  ( + T8 78 ) ) ( <= ( + T8 155 )( + T3 59 ) ) )
(or ( <= ( + T3 172 )  ( + T8 155 ) ) ( <= ( + T8 176 )( + T3 136 ) ) )
(or ( <= ( + T3 214 )  ( + T8 176 ) ) ( <= ( + T8 240 )( + T3 172 ) ) )
(or ( <= ( + T3 312 )  ( + T8 240 ) ) ( <= ( + T8 326 )( + T3 214 ) ) )
(or ( <= ( + T3 366 )  ( + T8 326 ) ) ( <= ( + T8 399 )( + T3 312 ) ) )
(or ( <= ( + T3 391 )  ( + T8 399 ) ) ( <= ( + T8 409 )( + T3 366 ) ) )
(or ( <= ( + T3 410 )  ( + T8 409 ) ) ( <= ( + T8 461 )( + T3 391 ) ) )
(or ( <= ( + T3 464 )  ( + T8 461 ) ) ( <= ( + T8 558 )( + T3 410 ) ) )
(or ( <= ( + T3 522 )  ( + T8 558 ) ) ( <= ( + T8 637 )( + T3 464 ) ) )
(or ( <= ( + T3 620 )  ( + T8 637 ) ) ( <= ( + T8 708 )( + T3 522 ) ) )
(or ( <= ( + T3 44 ) T9 ) ( <= ( + T9 30 ) T3 ) )
(or ( <= ( + T3 59 )  ( + T9 30 ) ) ( <= ( + T9 75 )( + T3 44 ) ) )
(or ( <= ( + T3 136 )  ( + T9 75 ) ) ( <= ( + T9 148 )( + T3 59 ) ) )
(or ( <= ( + T3 172 )  ( + T9 148 ) ) ( <= ( + T9 195 )( + T3 136 ) ) )
(or ( <= ( + T3 214 )  ( + T9 195 ) ) ( <= ( + T9 280 )( + T3 172 ) ) )
(or ( <= ( + T3 312 )  ( + T9 280 ) ) ( <= ( + T9 371 )( + T3 214 ) ) )
(or ( <= ( + T3 366 )  ( + T9 371 ) ) ( <= ( + T9 432 )( + T3 312 ) ) )
(or ( <= ( + T3 391 )  ( + T9 432 ) ) ( <= ( + T9 500 )( + T3 366 ) ) )
(or ( <= ( + T3 410 )  ( + T9 500 ) ) ( <= ( + T9 508 )( + T3 391 ) ) )
(or ( <= ( + T3 464 )  ( + T9 508 ) ) ( <= ( + T9 531 )( + T3 410 ) ) )
(or ( <= ( + T3 522 )  ( + T9 531 ) ) ( <= ( + T9 620 )( + T3 464 ) ) )
(or ( <= ( + T3 620 )  ( + T9 620 ) ) ( <= ( + T9 670 )( + T3 522 ) ) )
(or ( <= ( + T3 44 ) T10 ) ( <= ( + T10 66 ) T3 ) )
(or ( <= ( + T3 59 )  ( + T10 66 ) ) ( <= ( + T10 127 )( + T3 44 ) ) )
(or ( <= ( + T3 136 )  ( + T10 127 ) ) ( <= ( + T10 187 )( + T3 59 ) ) )
(or ( <= ( + T3 172 )  ( + T10 187 ) ) ( <= ( + T10 273 )( + T3 136 ) ) )
(or ( <= ( + T3 214 )  ( + T10 273 ) ) ( <= ( + T10 352 )( + T3 172 ) ) )
(or ( <= ( + T3 312 )  ( + T10 352 ) ) ( <= ( + T10 358 )( + T3 214 ) ) )
(or ( <= ( + T3 366 )  ( + T10 358 ) ) ( <= ( + T10 447 )( + T3 312 ) ) )
(or ( <= ( + T3 391 )  ( + T10 447 ) ) ( <= ( + T10 540 )( + T3 366 ) ) )
(or ( <= ( + T3 410 )  ( + T10 540 ) ) ( <= ( + T10 560 )( + T3 391 ) ) )
(or ( <= ( + T3 464 )  ( + T10 560 ) ) ( <= ( + T10 626 )( + T3 410 ) ) )
(or ( <= ( + T3 522 )  ( + T10 626 ) ) ( <= ( + T10 692 )( + T3 464 ) ) )
(or ( <= ( + T3 620 )  ( + T10 692 ) ) ( <= ( + T10 728 )( + T3 522 ) ) )
(or ( <= ( + T4 31 ) T5 ) ( <= ( + T5 68 ) T4 ) )
(or ( <= ( + T4 112 )  ( + T5 68 ) ) ( <= ( + T5 99 )( + T4 31 ) ) )
(or ( <= ( + T4 135 )  ( + T5 99 ) ) ( <= ( + T5 145 )( + T4 112 ) ) )
(or ( <= ( + T4 152 )  ( + T5 145 ) ) ( <= ( + T5 229 )( + T4 135 ) ) )
(or ( <= ( + T4 201 )  ( + T5 229 ) ) ( <= ( + T5 308 )( + T4 152 ) ) )
(or ( <= ( + T4 245 )  ( + T5 308 ) ) ( <= ( + T5 353 )( + T4 201 ) ) )
(or ( <= ( + T4 293 )  ( + T5 353 ) ) ( <= ( + T5 423 )( + T4 245 ) ) )
(or ( <= ( + T4 390 )  ( + T5 423 ) ) ( <= ( + T5 497 )( + T4 293 ) ) )
(or ( <= ( + T4 428 )  ( + T5 497 ) ) ( <= ( + T5 556 )( + T4 390 ) ) )
(or ( <= ( + T4 454 )  ( + T5 556 ) ) ( <= ( + T5 654 )( + T4 428 ) ) )
(or ( <= ( + T4 483 )  ( + T5 654 ) ) ( <= ( + T5 664 )( + T4 454 ) ) )
(or ( <= ( + T4 484 )  ( + T5 664 ) ) ( <= ( + T5 764 )( + T4 483 ) ) )
(or ( <= ( + T4 31 ) T6 ) ( <= ( + T6 47 ) T4 ) )
(or ( <= ( + T4 112 )  ( + T6 47 ) ) ( <= ( + T6 62 )( + T4 31 ) ) )
(or ( <= ( + T4 135 )  ( + T6 62 ) ) ( <= ( + T6 87 )( + T4 112 ) ) )
(or ( <= ( + T4 152 )  ( + T6 87 ) ) ( <= ( + T6 104 )( + T4 135 ) ) )
(or ( <= ( + T4 201 )  ( + T6 104 ) ) ( <= ( + T6 124 )( + T4 152 ) ) )
(or ( <= ( + T4 245 )  ( + T6 124 ) ) ( <= ( + T6 158 )( + T4 201 ) ) )
(or ( <= ( + T4 293 )  ( + T6 158 ) ) ( <= ( + T6 225 )( + T4 245 ) ) )
(or ( <= ( + T4 390 )  ( + T6 225 ) ) ( <= ( + T6 275 )( + T4 293 ) ) )
(or ( <= ( + T4 428 )  ( + T6 275 ) ) ( <= ( + T6 341 )( + T4 390 ) ) )
(or ( <= ( + T4 454 )  ( + T6 341 ) ) ( <= ( + T6 430 )( + T4 428 ) ) )
(or ( <= ( + T4 483 )  ( + T6 430 ) ) ( <= ( + T6 449 )( + T4 454 ) ) )
(or ( <= ( + T4 484 )  ( + T6 449 ) ) ( <= ( + T6 464 )( + T4 483 ) ) )
(or ( <= ( + T4 31 ) T7 ) ( <= ( + T7 84 ) T4 ) )
(or ( <= ( + T4 112 )  ( + T7 84 ) ) ( <= ( + T7 150 )( + T4 31 ) ) )
(or ( <= ( + T4 135 )  ( + T7 150 ) ) ( <= ( + T7 213 )( + T4 112 ) ) )
(or ( <= ( + T4 152 )  ( + T7 213 ) ) ( <= ( + T7 234 )( + T4 135 ) ) )
(or ( <= ( + T4 201 )  ( + T7 234 ) ) ( <= ( + T7 325 )( + T4 152 ) ) )
(or ( <= ( + T4 245 )  ( + T7 325 ) ) ( <= ( + T7 416 )( + T4 201 ) ) )
(or ( <= ( + T4 293 )  ( + T7 416 ) ) ( <= ( + T7 437 )( + T4 245 ) ) )
(or ( <= ( + T4 390 )  ( + T7 437 ) ) ( <= ( + T7 448 )( + T4 293 ) ) )
(or ( <= ( + T4 428 )  ( + T7 448 ) ) ( <= ( + T7 469 )( + T4 390 ) ) )
(or ( <= ( + T4 454 )  ( + T7 469 ) ) ( <= ( + T7 488 )( + T4 428 ) ) )
(or ( <= ( + T4 483 )  ( + T7 488 ) ) ( <= ( + T7 582 )( + T4 454 ) ) )
(or ( <= ( + T4 484 )  ( + T7 582 ) ) ( <= ( + T7 634 )( + T4 483 ) ) )
(or ( <= ( + T4 31 ) T8 ) ( <= ( + T8 63 ) T4 ) )
(or ( <= ( + T4 112 )  ( + T8 63 ) ) ( <= ( + T8 78 )( + T4 31 ) ) )
(or ( <= ( + T4 135 )  ( + T8 78 ) ) ( <= ( + T8 155 )( + T4 112 ) ) )
(or ( <= ( + T4 152 )  ( + T8 155 ) ) ( <= ( + T8 176 )( + T4 135 ) ) )
(or ( <= ( + T4 201 )  ( + T8 176 ) ) ( <= ( + T8 240 )( + T4 152 ) ) )
(or ( <= ( + T4 245 )  ( + T8 240 ) ) ( <= ( + T8 326 )( + T4 201 ) ) )
(or ( <= ( + T4 293 )  ( + T8 326 ) ) ( <= ( + T8 399 )( + T4 245 ) ) )
(or ( <= ( + T4 390 )  ( + T8 399 ) ) ( <= ( + T8 409 )( + T4 293 ) ) )
(or ( <= ( + T4 428 )  ( + T8 409 ) ) ( <= ( + T8 461 )( + T4 390 ) ) )
(or ( <= ( + T4 454 )  ( + T8 461 ) ) ( <= ( + T8 558 )( + T4 428 ) ) )
(or ( <= ( + T4 483 )  ( + T8 558 ) ) ( <= ( + T8 637 )( + T4 454 ) ) )
(or ( <= ( + T4 484 )  ( + T8 637 ) ) ( <= ( + T8 708 )( + T4 483 ) ) )
(or ( <= ( + T4 31 ) T9 ) ( <= ( + T9 30 ) T4 ) )
(or ( <= ( + T4 112 )  ( + T9 30 ) ) ( <= ( + T9 75 )( + T4 31 ) ) )
(or ( <= ( + T4 135 )  ( + T9 75 ) ) ( <= ( + T9 148 )( + T4 112 ) ) )
(or ( <= ( + T4 152 )  ( + T9 148 ) ) ( <= ( + T9 195 )( + T4 135 ) ) )
(or ( <= ( + T4 201 )  ( + T9 195 ) ) ( <= ( + T9 280 )( + T4 152 ) ) )
(or ( <= ( + T4 245 )  ( + T9 280 ) ) ( <= ( + T9 371 )( + T4 201 ) ) )
(or ( <= ( + T4 293 )  ( + T9 371 ) ) ( <= ( + T9 432 )( + T4 245 ) ) )
(or ( <= ( + T4 390 )  ( + T9 432 ) ) ( <= ( + T9 500 )( + T4 293 ) ) )
(or ( <= ( + T4 428 )  ( + T9 500 ) ) ( <= ( + T9 508 )( + T4 390 ) ) )
(or ( <= ( + T4 454 )  ( + T9 508 ) ) ( <= ( + T9 531 )( + T4 428 ) ) )
(or ( <= ( + T4 483 )  ( + T9 531 ) ) ( <= ( + T9 620 )( + T4 454 ) ) )
(or ( <= ( + T4 484 )  ( + T9 620 ) ) ( <= ( + T9 670 )( + T4 483 ) ) )
(or ( <= ( + T4 31 ) T10 ) ( <= ( + T10 66 ) T4 ) )
(or ( <= ( + T4 112 )  ( + T10 66 ) ) ( <= ( + T10 127 )( + T4 31 ) ) )
(or ( <= ( + T4 135 )  ( + T10 127 ) ) ( <= ( + T10 187 )( + T4 112 ) ) )
(or ( <= ( + T4 152 )  ( + T10 187 ) ) ( <= ( + T10 273 )( + T4 135 ) ) )
(or ( <= ( + T4 201 )  ( + T10 273 ) ) ( <= ( + T10 352 )( + T4 152 ) ) )
(or ( <= ( + T4 245 )  ( + T10 352 ) ) ( <= ( + T10 358 )( + T4 201 ) ) )
(or ( <= ( + T4 293 )  ( + T10 358 ) ) ( <= ( + T10 447 )( + T4 245 ) ) )
(or ( <= ( + T4 390 )  ( + T10 447 ) ) ( <= ( + T10 540 )( + T4 293 ) ) )
(or ( <= ( + T4 428 )  ( + T10 540 ) ) ( <= ( + T10 560 )( + T4 390 ) ) )
(or ( <= ( + T4 454 )  ( + T10 560 ) ) ( <= ( + T10 626 )( + T4 428 ) ) )
(or ( <= ( + T4 483 )  ( + T10 626 ) ) ( <= ( + T10 692 )( + T4 454 ) ) )
(or ( <= ( + T4 484 )  ( + T10 692 ) ) ( <= ( + T10 728 )( + T4 483 ) ) )
(or ( <= ( + T5 68 ) T6 ) ( <= ( + T6 47 ) T5 ) )
(or ( <= ( + T5 99 )  ( + T6 47 ) ) ( <= ( + T6 62 )( + T5 68 ) ) )
(or ( <= ( + T5 145 )  ( + T6 62 ) ) ( <= ( + T6 87 )( + T5 99 ) ) )
(or ( <= ( + T5 229 )  ( + T6 87 ) ) ( <= ( + T6 104 )( + T5 145 ) ) )
(or ( <= ( + T5 308 )  ( + T6 104 ) ) ( <= ( + T6 124 )( + T5 229 ) ) )
(or ( <= ( + T5 353 )  ( + T6 124 ) ) ( <= ( + T6 158 )( + T5 308 ) ) )
(or ( <= ( + T5 423 )  ( + T6 158 ) ) ( <= ( + T6 225 )( + T5 353 ) ) )
(or ( <= ( + T5 497 )  ( + T6 225 ) ) ( <= ( + T6 275 )( + T5 423 ) ) )
(or ( <= ( + T5 556 )  ( + T6 275 ) ) ( <= ( + T6 341 )( + T5 497 ) ) )
(or ( <= ( + T5 654 )  ( + T6 341 ) ) ( <= ( + T6 430 )( + T5 556 ) ) )
(or ( <= ( + T5 664 )  ( + T6 430 ) ) ( <= ( + T6 449 )( + T5 654 ) ) )
(or ( <= ( + T5 764 )  ( + T6 449 ) ) ( <= ( + T6 464 )( + T5 664 ) ) )
(or ( <= ( + T5 68 ) T7 ) ( <= ( + T7 84 ) T5 ) )
(or ( <= ( + T5 99 )  ( + T7 84 ) ) ( <= ( + T7 150 )( + T5 68 ) ) )
(or ( <= ( + T5 145 )  ( + T7 150 ) ) ( <= ( + T7 213 )( + T5 99 ) ) )
(or ( <= ( + T5 229 )  ( + T7 213 ) ) ( <= ( + T7 234 )( + T5 145 ) ) )
(or ( <= ( + T5 308 )  ( + T7 234 ) ) ( <= ( + T7 325 )( + T5 229 ) ) )
(or ( <= ( + T5 353 )  ( + T7 325 ) ) ( <= ( + T7 416 )( + T5 308 ) ) )
(or ( <= ( + T5 423 )  ( + T7 416 ) ) ( <= ( + T7 437 )( + T5 353 ) ) )
(or ( <= ( + T5 497 )  ( + T7 437 ) ) ( <= ( + T7 448 )( + T5 423 ) ) )
(or ( <= ( + T5 556 )  ( + T7 448 ) ) ( <= ( + T7 469 )( + T5 497 ) ) )
(or ( <= ( + T5 654 )  ( + T7 469 ) ) ( <= ( + T7 488 )( + T5 556 ) ) )
(or ( <= ( + T5 664 )  ( + T7 488 ) ) ( <= ( + T7 582 )( + T5 654 ) ) )
(or ( <= ( + T5 764 )  ( + T7 582 ) ) ( <= ( + T7 634 )( + T5 664 ) ) )
(or ( <= ( + T5 68 ) T8 ) ( <= ( + T8 63 ) T5 ) )
(or ( <= ( + T5 99 )  ( + T8 63 ) ) ( <= ( + T8 78 )( + T5 68 ) ) )
(or ( <= ( + T5 145 )  ( + T8 78 ) ) ( <= ( + T8 155 )( + T5 99 ) ) )
(or ( <= ( + T5 229 )  ( + T8 155 ) ) ( <= ( + T8 176 )( + T5 145 ) ) )
(or ( <= ( + T5 308 )  ( + T8 176 ) ) ( <= ( + T8 240 )( + T5 229 ) ) )
(or ( <= ( + T5 353 )  ( + T8 240 ) ) ( <= ( + T8 326 )( + T5 308 ) ) )
(or ( <= ( + T5 423 )  ( + T8 326 ) ) ( <= ( + T8 399 )( + T5 353 ) ) )
(or ( <= ( + T5 497 )  ( + T8 399 ) ) ( <= ( + T8 409 )( + T5 423 ) ) )
(or ( <= ( + T5 556 )  ( + T8 409 ) ) ( <= ( + T8 461 )( + T5 497 ) ) )
(or ( <= ( + T5 654 )  ( + T8 461 ) ) ( <= ( + T8 558 )( + T5 556 ) ) )
(or ( <= ( + T5 664 )  ( + T8 558 ) ) ( <= ( + T8 637 )( + T5 654 ) ) )
(or ( <= ( + T5 764 )  ( + T8 637 ) ) ( <= ( + T8 708 )( + T5 664 ) ) )
(or ( <= ( + T5 68 ) T9 ) ( <= ( + T9 30 ) T5 ) )
(or ( <= ( + T5 99 )  ( + T9 30 ) ) ( <= ( + T9 75 )( + T5 68 ) ) )
(or ( <= ( + T5 145 )  ( + T9 75 ) ) ( <= ( + T9 148 )( + T5 99 ) ) )
(or ( <= ( + T5 229 )  ( + T9 148 ) ) ( <= ( + T9 195 )( + T5 145 ) ) )
(or ( <= ( + T5 308 )  ( + T9 195 ) ) ( <= ( + T9 280 )( + T5 229 ) ) )
(or ( <= ( + T5 353 )  ( + T9 280 ) ) ( <= ( + T9 371 )( + T5 308 ) ) )
(or ( <= ( + T5 423 )  ( + T9 371 ) ) ( <= ( + T9 432 )( + T5 353 ) ) )
(or ( <= ( + T5 497 )  ( + T9 432 ) ) ( <= ( + T9 500 )( + T5 423 ) ) )
(or ( <= ( + T5 556 )  ( + T9 500 ) ) ( <= ( + T9 508 )( + T5 497 ) ) )
(or ( <= ( + T5 654 )  ( + T9 508 ) ) ( <= ( + T9 531 )( + T5 556 ) ) )
(or ( <= ( + T5 664 )  ( + T9 531 ) ) ( <= ( + T9 620 )( + T5 654 ) ) )
(or ( <= ( + T5 764 )  ( + T9 620 ) ) ( <= ( + T9 670 )( + T5 664 ) ) )
(or ( <= ( + T5 68 ) T10 ) ( <= ( + T10 66 ) T5 ) )
(or ( <= ( + T5 99 )  ( + T10 66 ) ) ( <= ( + T10 127 )( + T5 68 ) ) )
(or ( <= ( + T5 145 )  ( + T10 127 ) ) ( <= ( + T10 187 )( + T5 99 ) ) )
(or ( <= ( + T5 229 )  ( + T10 187 ) ) ( <= ( + T10 273 )( + T5 145 ) ) )
(or ( <= ( + T5 308 )  ( + T10 273 ) ) ( <= ( + T10 352 )( + T5 229 ) ) )
(or ( <= ( + T5 353 )  ( + T10 352 ) ) ( <= ( + T10 358 )( + T5 308 ) ) )
(or ( <= ( + T5 423 )  ( + T10 358 ) ) ( <= ( + T10 447 )( + T5 353 ) ) )
(or ( <= ( + T5 497 )  ( + T10 447 ) ) ( <= ( + T10 540 )( + T5 423 ) ) )
(or ( <= ( + T5 556 )  ( + T10 540 ) ) ( <= ( + T10 560 )( + T5 497 ) ) )
(or ( <= ( + T5 654 )  ( + T10 560 ) ) ( <= ( + T10 626 )( + T5 556 ) ) )
(or ( <= ( + T5 664 )  ( + T10 626 ) ) ( <= ( + T10 692 )( + T5 654 ) ) )
(or ( <= ( + T5 764 )  ( + T10 692 ) ) ( <= ( + T10 728 )( + T5 664 ) ) )
(or ( <= ( + T6 47 ) T7 ) ( <= ( + T7 84 ) T6 ) )
(or ( <= ( + T6 62 )  ( + T7 84 ) ) ( <= ( + T7 150 )( + T6 47 ) ) )
(or ( <= ( + T6 87 )  ( + T7 150 ) ) ( <= ( + T7 213 )( + T6 62 ) ) )
(or ( <= ( + T6 104 )  ( + T7 213 ) ) ( <= ( + T7 234 )( + T6 87 ) ) )
(or ( <= ( + T6 124 )  ( + T7 234 ) ) ( <= ( + T7 325 )( + T6 104 ) ) )
(or ( <= ( + T6 158 )  ( + T7 325 ) ) ( <= ( + T7 416 )( + T6 124 ) ) )
(or ( <= ( + T6 225 )  ( + T7 416 ) ) ( <= ( + T7 437 )( + T6 158 ) ) )
(or ( <= ( + T6 275 )  ( + T7 437 ) ) ( <= ( + T7 448 )( + T6 225 ) ) )
(or ( <= ( + T6 341 )  ( + T7 448 ) ) ( <= ( + T7 469 )( + T6 275 ) ) )
(or ( <= ( + T6 430 )  ( + T7 469 ) ) ( <= ( + T7 488 )( + T6 341 ) ) )
(or ( <= ( + T6 449 )  ( + T7 488 ) ) ( <= ( + T7 582 )( + T6 430 ) ) )
(or ( <= ( + T6 464 )  ( + T7 582 ) ) ( <= ( + T7 634 )( + T6 449 ) ) )
(or ( <= ( + T6 47 ) T8 ) ( <= ( + T8 63 ) T6 ) )
(or ( <= ( + T6 62 )  ( + T8 63 ) ) ( <= ( + T8 78 )( + T6 47 ) ) )
(or ( <= ( + T6 87 )  ( + T8 78 ) ) ( <= ( + T8 155 )( + T6 62 ) ) )
(or ( <= ( + T6 104 )  ( + T8 155 ) ) ( <= ( + T8 176 )( + T6 87 ) ) )
(or ( <= ( + T6 124 )  ( + T8 176 ) ) ( <= ( + T8 240 )( + T6 104 ) ) )
(or ( <= ( + T6 158 )  ( + T8 240 ) ) ( <= ( + T8 326 )( + T6 124 ) ) )
(or ( <= ( + T6 225 )  ( + T8 326 ) ) ( <= ( + T8 399 )( + T6 158 ) ) )
(or ( <= ( + T6 275 )  ( + T8 399 ) ) ( <= ( + T8 409 )( + T6 225 ) ) )
(or ( <= ( + T6 341 )  ( + T8 409 ) ) ( <= ( + T8 461 )( + T6 275 ) ) )
(or ( <= ( + T6 430 )  ( + T8 461 ) ) ( <= ( + T8 558 )( + T6 341 ) ) )
(or ( <= ( + T6 449 )  ( + T8 558 ) ) ( <= ( + T8 637 )( + T6 430 ) ) )
(or ( <= ( + T6 464 )  ( + T8 637 ) ) ( <= ( + T8 708 )( + T6 449 ) ) )
(or ( <= ( + T6 47 ) T9 ) ( <= ( + T9 30 ) T6 ) )
(or ( <= ( + T6 62 )  ( + T9 30 ) ) ( <= ( + T9 75 )( + T6 47 ) ) )
(or ( <= ( + T6 87 )  ( + T9 75 ) ) ( <= ( + T9 148 )( + T6 62 ) ) )
(or ( <= ( + T6 104 )  ( + T9 148 ) ) ( <= ( + T9 195 )( + T6 87 ) ) )
(or ( <= ( + T6 124 )  ( + T9 195 ) ) ( <= ( + T9 280 )( + T6 104 ) ) )
(or ( <= ( + T6 158 )  ( + T9 280 ) ) ( <= ( + T9 371 )( + T6 124 ) ) )
(or ( <= ( + T6 225 )  ( + T9 371 ) ) ( <= ( + T9 432 )( + T6 158 ) ) )
(or ( <= ( + T6 275 )  ( + T9 432 ) ) ( <= ( + T9 500 )( + T6 225 ) ) )
(or ( <= ( + T6 341 )  ( + T9 500 ) ) ( <= ( + T9 508 )( + T6 275 ) ) )
(or ( <= ( + T6 430 )  ( + T9 508 ) ) ( <= ( + T9 531 )( + T6 341 ) ) )
(or ( <= ( + T6 449 )  ( + T9 531 ) ) ( <= ( + T9 620 )( + T6 430 ) ) )
(or ( <= ( + T6 464 )  ( + T9 620 ) ) ( <= ( + T9 670 )( + T6 449 ) ) )
(or ( <= ( + T6 47 ) T10 ) ( <= ( + T10 66 ) T6 ) )
(or ( <= ( + T6 62 )  ( + T10 66 ) ) ( <= ( + T10 127 )( + T6 47 ) ) )
(or ( <= ( + T6 87 )  ( + T10 127 ) ) ( <= ( + T10 187 )( + T6 62 ) ) )
(or ( <= ( + T6 104 )  ( + T10 187 ) ) ( <= ( + T10 273 )( + T6 87 ) ) )
(or ( <= ( + T6 124 )  ( + T10 273 ) ) ( <= ( + T10 352 )( + T6 104 ) ) )
(or ( <= ( + T6 158 )  ( + T10 352 ) ) ( <= ( + T10 358 )( + T6 124 ) ) )
(or ( <= ( + T6 225 )  ( + T10 358 ) ) ( <= ( + T10 447 )( + T6 158 ) ) )
(or ( <= ( + T6 275 )  ( + T10 447 ) ) ( <= ( + T10 540 )( + T6 225 ) ) )
(or ( <= ( + T6 341 )  ( + T10 540 ) ) ( <= ( + T10 560 )( + T6 275 ) ) )
(or ( <= ( + T6 430 )  ( + T10 560 ) ) ( <= ( + T10 626 )( + T6 341 ) ) )
(or ( <= ( + T6 449 )  ( + T10 626 ) ) ( <= ( + T10 692 )( + T6 430 ) ) )
(or ( <= ( + T6 464 )  ( + T10 692 ) ) ( <= ( + T10 728 )( + T6 449 ) ) )
(or ( <= ( + T7 84 ) T8 ) ( <= ( + T8 63 ) T7 ) )
(or ( <= ( + T7 150 )  ( + T8 63 ) ) ( <= ( + T8 78 )( + T7 84 ) ) )
(or ( <= ( + T7 213 )  ( + T8 78 ) ) ( <= ( + T8 155 )( + T7 150 ) ) )
(or ( <= ( + T7 234 )  ( + T8 155 ) ) ( <= ( + T8 176 )( + T7 213 ) ) )
(or ( <= ( + T7 325 )  ( + T8 176 ) ) ( <= ( + T8 240 )( + T7 234 ) ) )
(or ( <= ( + T7 416 )  ( + T8 240 ) ) ( <= ( + T8 326 )( + T7 325 ) ) )
(or ( <= ( + T7 437 )  ( + T8 326 ) ) ( <= ( + T8 399 )( + T7 416 ) ) )
(or ( <= ( + T7 448 )  ( + T8 399 ) ) ( <= ( + T8 409 )( + T7 437 ) ) )
(or ( <= ( + T7 469 )  ( + T8 409 ) ) ( <= ( + T8 461 )( + T7 448 ) ) )
(or ( <= ( + T7 488 )  ( + T8 461 ) ) ( <= ( + T8 558 )( + T7 469 ) ) )
(or ( <= ( + T7 582 )  ( + T8 558 ) ) ( <= ( + T8 637 )( + T7 488 ) ) )
(or ( <= ( + T7 634 )  ( + T8 637 ) ) ( <= ( + T8 708 )( + T7 582 ) ) )
(or ( <= ( + T7 84 ) T9 ) ( <= ( + T9 30 ) T7 ) )
(or ( <= ( + T7 150 )  ( + T9 30 ) ) ( <= ( + T9 75 )( + T7 84 ) ) )
(or ( <= ( + T7 213 )  ( + T9 75 ) ) ( <= ( + T9 148 )( + T7 150 ) ) )
(or ( <= ( + T7 234 )  ( + T9 148 ) ) ( <= ( + T9 195 )( + T7 213 ) ) )
(or ( <= ( + T7 325 )  ( + T9 195 ) ) ( <= ( + T9 280 )( + T7 234 ) ) )
(or ( <= ( + T7 416 )  ( + T9 280 ) ) ( <= ( + T9 371 )( + T7 325 ) ) )
(or ( <= ( + T7 437 )  ( + T9 371 ) ) ( <= ( + T9 432 )( + T7 416 ) ) )
(or ( <= ( + T7 448 )  ( + T9 432 ) ) ( <= ( + T9 500 )( + T7 437 ) ) )
(or ( <= ( + T7 469 )  ( + T9 500 ) ) ( <= ( + T9 508 )( + T7 448 ) ) )
(or ( <= ( + T7 488 )  ( + T9 508 ) ) ( <= ( + T9 531 )( + T7 469 ) ) )
(or ( <= ( + T7 582 )  ( + T9 531 ) ) ( <= ( + T9 620 )( + T7 488 ) ) )
(or ( <= ( + T7 634 )  ( + T9 620 ) ) ( <= ( + T9 670 )( + T7 582 ) ) )
(or ( <= ( + T7 84 ) T10 ) ( <= ( + T10 66 ) T7 ) )
(or ( <= ( + T7 150 )  ( + T10 66 ) ) ( <= ( + T10 127 )( + T7 84 ) ) )
(or ( <= ( + T7 213 )  ( + T10 127 ) ) ( <= ( + T10 187 )( + T7 150 ) ) )
(or ( <= ( + T7 234 )  ( + T10 187 ) ) ( <= ( + T10 273 )( + T7 213 ) ) )
(or ( <= ( + T7 325 )  ( + T10 273 ) ) ( <= ( + T10 352 )( + T7 234 ) ) )
(or ( <= ( + T7 416 )  ( + T10 352 ) ) ( <= ( + T10 358 )( + T7 325 ) ) )
(or ( <= ( + T7 437 )  ( + T10 358 ) ) ( <= ( + T10 447 )( + T7 416 ) ) )
(or ( <= ( + T7 448 )  ( + T10 447 ) ) ( <= ( + T10 540 )( + T7 437 ) ) )
(or ( <= ( + T7 469 )  ( + T10 540 ) ) ( <= ( + T10 560 )( + T7 448 ) ) )
(or ( <= ( + T7 488 )  ( + T10 560 ) ) ( <= ( + T10 626 )( + T7 469 ) ) )
(or ( <= ( + T7 582 )  ( + T10 626 ) ) ( <= ( + T10 692 )( + T7 488 ) ) )
(or ( <= ( + T7 634 )  ( + T10 692 ) ) ( <= ( + T10 728 )( + T7 582 ) ) )
(or ( <= ( + T8 63 ) T9 ) ( <= ( + T9 30 ) T8 ) )
(or ( <= ( + T8 78 )  ( + T9 30 ) ) ( <= ( + T9 75 )( + T8 63 ) ) )
(or ( <= ( + T8 155 )  ( + T9 75 ) ) ( <= ( + T9 148 )( + T8 78 ) ) )
(or ( <= ( + T8 176 )  ( + T9 148 ) ) ( <= ( + T9 195 )( + T8 155 ) ) )
(or ( <= ( + T8 240 )  ( + T9 195 ) ) ( <= ( + T9 280 )( + T8 176 ) ) )
(or ( <= ( + T8 326 )  ( + T9 280 ) ) ( <= ( + T9 371 )( + T8 240 ) ) )
(or ( <= ( + T8 399 )  ( + T9 371 ) ) ( <= ( + T9 432 )( + T8 326 ) ) )
(or ( <= ( + T8 409 )  ( + T9 432 ) ) ( <= ( + T9 500 )( + T8 399 ) ) )
(or ( <= ( + T8 461 )  ( + T9 500 ) ) ( <= ( + T9 508 )( + T8 409 ) ) )
(or ( <= ( + T8 558 )  ( + T9 508 ) ) ( <= ( + T9 531 )( + T8 461 ) ) )
(or ( <= ( + T8 637 )  ( + T9 531 ) ) ( <= ( + T9 620 )( + T8 558 ) ) )
(or ( <= ( + T8 708 )  ( + T9 620 ) ) ( <= ( + T9 670 )( + T8 637 ) ) )
(or ( <= ( + T8 63 ) T10 ) ( <= ( + T10 66 ) T8 ) )
(or ( <= ( + T8 78 )  ( + T10 66 ) ) ( <= ( + T10 127 )( + T8 63 ) ) )
(or ( <= ( + T8 155 )  ( + T10 127 ) ) ( <= ( + T10 187 )( + T8 78 ) ) )
(or ( <= ( + T8 176 )  ( + T10 187 ) ) ( <= ( + T10 273 )( + T8 155 ) ) )
(or ( <= ( + T8 240 )  ( + T10 273 ) ) ( <= ( + T10 352 )( + T8 176 ) ) )
(or ( <= ( + T8 326 )  ( + T10 352 ) ) ( <= ( + T10 358 )( + T8 240 ) ) )
(or ( <= ( + T8 399 )  ( + T10 358 ) ) ( <= ( + T10 447 )( + T8 326 ) ) )
(or ( <= ( + T8 409 )  ( + T10 447 ) ) ( <= ( + T10 540 )( + T8 399 ) ) )
(or ( <= ( + T8 461 )  ( + T10 540 ) ) ( <= ( + T10 560 )( + T8 409 ) ) )
(or ( <= ( + T8 558 )  ( + T10 560 ) ) ( <= ( + T10 626 )( + T8 461 ) ) )
(or ( <= ( + T8 637 )  ( + T10 626 ) ) ( <= ( + T10 692 )( + T8 558 ) ) )
(or ( <= ( + T8 708 )  ( + T10 692 ) ) ( <= ( + T10 728 )( + T8 637 ) ) )
(or ( <= ( + T9 30 ) T10 ) ( <= ( + T10 66 ) T9 ) )
(or ( <= ( + T9 75 )  ( + T10 66 ) ) ( <= ( + T10 127 )( + T9 30 ) ) )
(or ( <= ( + T9 148 )  ( + T10 127 ) ) ( <= ( + T10 187 )( + T9 75 ) ) )
(or ( <= ( + T9 195 )  ( + T10 187 ) ) ( <= ( + T10 273 )( + T9 148 ) ) )
(or ( <= ( + T9 280 )  ( + T10 273 ) ) ( <= ( + T10 352 )( + T9 195 ) ) )
(or ( <= ( + T9 371 )  ( + T10 352 ) ) ( <= ( + T10 358 )( + T9 280 ) ) )
(or ( <= ( + T9 432 )  ( + T10 358 ) ) ( <= ( + T10 447 )( + T9 371 ) ) )
(or ( <= ( + T9 500 )  ( + T10 447 ) ) ( <= ( + T10 540 )( + T9 432 ) ) )
(or ( <= ( + T9 508 )  ( + T10 540 ) ) ( <= ( + T10 560 )( + T9 500 ) ) )
(or ( <= ( + T9 531 )  ( + T10 560 ) ) ( <= ( + T10 626 )( + T9 508 ) ) )
(or ( <= ( + T9 620 )  ( + T10 626 ) ) ( <= ( + T10 692 )( + T9 531 ) ) )
(or ( <= ( + T9 670 )  ( + T10 692 ) ) ( <= ( + T10 728 )( + T9 620 ) ) )
( <= ( + T1 444 ) Z)
( <= ( + T2 600 ) Z)
( <= ( + T3 620 ) Z)
( <= ( + T4 484 ) Z)
( <= ( + T5 764 ) Z)
( <= ( + T6 464 ) Z)
( <= ( + T7 634 ) Z)
( <= ( + T8 708 ) Z)
( <= ( + T9 670 ) Z)
( <= ( + T10 728 ) Z)
( >= T1 0 )
( >= T2 0 )
( >= T3 0 )
( >= T4 0 )
( >= T5 0 )
( >= T6 0 )
( >= T7 0 )
( >= T8 0 )
( >= T9 0 )
( >= T10 0 )
) )
(minimize Z)
(check-sat)